Problem:    lp
Rows:       3
Columns:    2 (2 integer, 0 binary)
Non-zeros:  6
Status:     INTEGER OPTIMAL
Objective:  z = 120 (MAXimum)

   No.   Row name        Activity     Lower bound   Upper bound
------ ------------    ------------- ------------- -------------
     1 z                         120                             
     2 st1                        30                          30 
     3 st2                        20                          24 

   No. Column name       Activity     Lower bound   Upper bound
------ ------------    ------------- ------------- -------------
     1 x            *              0             0               
     2 y            *             10             0               

Integer feasibility conditions:

KKT.PE: max.abs.err = 0.00e+00 on row 0
        max.rel.err = 0.00e+00 on row 0
        High quality

KKT.PB: max.abs.err = 0.00e+00 on row 0
        max.rel.err = 0.00e+00 on row 0
        High quality

End of output
